WARNING: for repeatability, setting FPU to use double precision
============================[ Problem Statistics ]=============================
|                                                                             |
|  Number of variables:          1672                                         |
|  Number of clauses:            5207                                         |
|  Parse time:                   0.00 s                                       |
|                                                                             |
c ============================[ Search Statistics ]==============================
c | Conflicts |          ORIGINAL         |          LEARNT          | Progress |
c |           |    Vars  Clauses Literals |    Limit  Clauses Lit/Cl |          |
c ===============================================================================
We had 14 decisions of which only 0 were on extended
We had 40012 decisions of which only 0 were on extended
We had 63199 decisions of which only 0.186712 were on extended
We had 89285 decisions of which only 0.787366 were on extended
We had 110494 decisions of which only 1.9983 were on extended
We had 132400 decisions of which only 4.2636 were on extended
We had 148300 decisions of which only 3.89211 were on extended
We had 164749 decisions of which only 3.57089 were on extended
We had 179967 decisions of which only 3.34284 were on extended
We had 195292 decisions of which only 3.14606 were on extended
We had 208192 decisions of which only 2.99147 were on extended
We had 220549 decisions of which only 2.89369 were on extended
We had 233729 decisions of which only 2.77672 were on extended
We had 246606 decisions of which only 2.67958 were on extended
We had 259905 decisions of which only 2.58364 were on extended
We had 272893 decisions of which only 2.49292 were on extended
We had 285646 decisions of which only 2.44954 were on extended
We had 298698 decisions of which only 2.41113 were on extended
c Switched to VSIDS.
We had 311490 decisions of which only 2.46043 were on extended
Window full
Continue
We had 325243 decisions of which only 2.43326 were on extended
We had 339072 decisions of which only 2.40273 were on extended
We had 352905 decisions of which only 2.4015 were on extended
We had 366697 decisions of which only 2.40771 were on extended
We had 380898 decisions of which only 2.44265 were on extended
We had 395355 decisions of which only 2.4196 were on extended
We had 409538 decisions of which only 2.37145 were on extended
We had 423084 decisions of which only 2.40898 were on extended
We had 435901 decisions of which only 2.39343 were on extended
We had 449724 decisions of which only 2.4057 were on extended
Window full
Continue
We had 462642 decisions of which only 2.41807 were on extended
We had 475626 decisions of which only 2.42354 were on extended
We had 489855 decisions of which only 2.46012 were on extended
We had 503546 decisions of which only 2.4961 were on extended
We had 517392 decisions of which only 2.51956 were on extended
CAREFUL: the definition is falsified in conflict 338117 at DL 23 (has happened 1 times)
We had 530522 decisions of which only 2.52054 were on extended
We had 544250 decisions of which only 2.5062 were on extended
c Switched to LRB.
We had 558111 decisions of which only 2.53767 were on extended
We had 570870 decisions of which only 2.52352 were on extended
We had 583079 decisions of which only 2.55814 were on extended
Window full
Continue
We had 595283 decisions of which only 2.57726 were on extended
We had 607371 decisions of which only 2.61603 were on extended
We had 619158 decisions of which only 2.67848 were on extended
We had 631362 decisions of which only 2.72538 were on extended
We had 643645 decisions of which only 2.81941 were on extended
We had 655847 decisions of which only 2.88543 were on extended
We had 667838 decisions of which only 2.91553 were on extended
We had 679493 decisions of which only 2.92615 were on extended
We had 691799 decisions of which only 3.02328 were on extended
We had 703738 decisions of which only 3.10329 were on extended
Window full
Continue
We had 715701 decisions of which only 3.17339 were on extended
c Switched to VSIDS.
We had 729272 decisions of which only 3.16878 were on extended
We had 743583 decisions of which only 3.19036 were on extended
We had 757443 decisions of which only 3.22308 were on extended
We had 769600 decisions of which only 3.22739 were on extended
We had 784175 decisions of which only 3.26356 were on extended
We had 798250 decisions of which only 3.27905 were on extended
We had 811830 decisions of which only 3.31843 were on extended
We had 824689 decisions of which only 3.33859 were on extended
We had 839065 decisions of which only 3.36923 were on extended
Window full
Continue
We had 853905 decisions of which only 3.42076 were on extended
We had 869830 decisions of which only 3.47873 were on extended
We had 884344 decisions of which only 3.52917 were on extended
We had 897987 decisions of which only 3.55874 were on extended
We had 911839 decisions of which only 3.59493 were on extended
We had 926011 decisions of which only 3.66475 were on extended
We had 939570 decisions of which only 3.72564 were on extended
c Switched to LRB.
We had 954317 decisions of which only 3.77003 were on extended
We had 966695 decisions of which only 3.80906 were on extended
We had 978958 decisions of which only 3.85042 were on extended
Window full
Continue
We had 991492 decisions of which only 3.91753 were on extended
We had 1004444 decisions of which only 3.97464 were on extended
We had 1016911 decisions of which only 3.98924 were on extended
We had 1029279 decisions of which only 4.04108 were on extended
We had 1040684 decisions of which only 4.09298 were on extended
We had 1053428 decisions of which only 4.17057 were on extended
We had 1065642 decisions of which only 4.24035 were on extended
We had 1078038 decisions of which only 4.30514 were on extended
We had 1090217 decisions of which only 4.395 were on extended
We had 1101737 decisions of which only 4.48719 were on extended
Window full
Continue
We had 1113063 decisions of which only 4.57647 were on extended
We had 1124671 decisions of which only 4.67443 were on extended
We had 1136251 decisions of which only 4.75714 were on extended
We had 1148029 decisions of which only 4.85998 were on extended
We had 1159529 decisions of which only 4.96296 were on extended
We had 1171298 decisions of which only 5.06703 were on extended
We had 1182736 decisions of which only 5.17985 were on extended
We had 1194257 decisions of which only 5.30279 were on extended
c Switched to VSIDS.
We had 1207873 decisions of which only 5.38335 were on extended
We had 1222816 decisions of which only 5.4305 were on extended
Window full
Some very high
Continue
We had 1237505 decisions of which only 5.49097 were on extended
We had 1252047 decisions of which only 5.53126 were on extended
We had 1266171 decisions of which only 5.56339 were on extended
We had 1281084 decisions of which only 5.60775 were on extended
We had 1295203 decisions of which only 5.66035 were on extended
We had 1310606 decisions of which only 5.7172 were on extended
We had 1325748 decisions of which only 5.77055 were on extended
We had 1341340 decisions of which only 5.83983 were on extended
c Switched to LRB.
We had 1356985 decisions of which only 5.90684 were on extended
We had 1370280 decisions of which only 5.96951 were on extended
We had 1382829 decisions of which only 6.11305 were on extended
We had 1395550 decisions of which only 6.2288 were on extended
We had 1407623 decisions of which only 6.36499 were on extended
We had 1420158 decisions of which only 6.49062 were on extended
We had 1432618 decisions of which only 6.62689 were on extended
We had 1444734 decisions of which only 6.76941 were on extended
We had 1456665 decisions of which only 6.92156 were on extended
We had 1468176 decisions of which only 7.02409 were on extended
We had 1479700 decisions of which only 7.12408 were on extended
We had 1491483 decisions of which only 7.25821 were on extended
We had 1503246 decisions of which only 7.38469 were on extended
We had 1516074 decisions of which only 7.45274 were on extended
We had 1528177 decisions of which only 7.5861 were on extended
c Switched to VSIDS.
We had 1541528 decisions of which only 7.68789 were on extended
We had 1556168 decisions of which only 7.73605 were on extended
We had 1571622 decisions of which only 7.77973 were on extended
We had 1587680 decisions of which only 7.83099 were on extended
We had 1602500 decisions of which only 7.87513 were on extended
We had 1617078 decisions of which only 7.91452 were on extended
We had 1632350 decisions of which only 7.96202 were on extended
We had 1647463 decisions of which only 8.0241 were on extended
We had 1661618 decisions of which only 8.09001 were on extended
We had 1675872 decisions of which only 8.14113 were on extended
c ===============================================================================
restarts                  : 2865
conflicts                 : 1217316        (5417 /sec)
decisions                 : 1689552        (0.00 % random) (7518 /sec)
propagations              : 330251384      (1469552 /sec)
conflict literals         : 35386566       (40.29 % deleted)

conflicts w/ DIP found    : 818673         (67.25 % of conflicts)
conflicts w/ dangerous DIP: 2              (0.00 % of conflicts)
conflicts w/ DIP-learning : 18102          (1.49 % of conflicts)
decisions on ext vars     : 141029         (8.35 % of decisions)
total ext vars            : 4982        
tried delete ext vars     : 3762        
deleted ext vars          : 3762        
max ext vars              : 1357        

Memory used               : 67.00 MB
CPU time                  : 224.729 s
DIP computation time      : 9.44969 s (4.20 % of total time)
ER_sel time               : 1.17393 s
ER_add time               : 0.01749 s
ER_delC time              : 0 s
ER_delV time              : 0.105187 s
ER_sub time               : 1.53146 s
ER_stat time              : 0 s

SATISFIABLE
